961221
961221
953820
951275
951275
928024
919221
919221
919221
919221
919221
914493
914493
910374
909194
904200
904200
899661
899661
898076
885497
885497
885497
885497
861119
861119
861119
861119
861119
861119
861119
861119
861119
850593
850593
850593
850593
850593
850593
850593
850593
845194
845194
845194
845194
845194
845194
845194
845194
845194
832274
832274
832274
832274
832274
832274
832274
832274
832274
832274
832274
832274
832274
832274
832274
832274
832274
832274
832274
832274
832274
832274
832274
832274
832274
832274
832274
832274
832274
823857
823857
823857
823857
823857
823857
823857
823857
822093
822093
822093
816909
816909
816909
816909
816909
814604
807031
807031
807031
807031
